data/mip_solutions/furman_sahinidis/reduced_transportation/37sp-yfyv_cplex.sol
Elapsed time: 32.8613960743
Nodes explored: 27698
Upper bound: 36.0000093439
Lower bound: 35.0
y[0,0]=1
y[0,5]=1
y[0,7]=1
y[1,10]=1
y[1,14]=1
y[2,0]=1
y[3,2]=1
y[3,11]=1
y[3,13]=1
y[4,16]=1
y[5,0]=1
y[5,6]=1
y[5,9]=1
y[6,0]=1
y[7,0]=1
y[8,16]=1
y[9,16]=1
y[10,8]=1
y[10,16]=1
y[11,16]=1
y[12,0]=1
y[13,16]=1
y[14,16]=1
y[15,16]=1
y[16,16]=1
y[17,6]=1
y[17,14]=1
y[18,16]=1
y[19,16]=1
y[20,0]=1
y[20,1]=1
y[20,3]=1
y[20,4]=1
y[20,12]=1
y[20,13]=1
y[20,15]=1
y[20,16]=1
q[0,5,0,7]=24615.0
q[0,6,0,18]=1292.5
q[0,6,0,21]=901.0
q[0,6,0,27]=5125.5
q[0,6,5,15]=778.0
q[0,6,5,17]=1556.0
q[0,6,7,9]=193.0
q[0,7,0,11]=35185.4
q[0,7,0,14]=2953.8
q[0,7,5,13]=778.0
q[0,7,5,14]=466.8
q[0,8,0,8]=9711.7
q[0,8,0,10]=3486.0
q[0,8,0,13]=13501.0
q[0,8,0,21]=8994.1
q[0,8,5,16]=13537.2
q[1,7,14,18]=6136.0
q[1,8,14,18]=15340.0
q[1,9,14,16]=6136.0
q[1,10,14,18]=1534.0
q[1,11,14,16]=9761.9
q[1,11,14,17]=3221.0
q[1,11,14,18]=733.2
q[1,11,14,20]=5689.0
q[1,12,14,18]=2070.9
q[1,13,14,16]=2301.0
q[1,14,14,18]=460.2
q[1,15,14,20]=767.0
q[1,16,14,18]=3725.7
q[1,16,14,21]=9620.1
q[1,17,14,20]=1534.0
q[1,18,10,28]=1631.0
q[1,18,14,19]=8437.5
q[1,18,14,20]=703.5
q[1,18,14,22]=1500.0
q[1,19,14,20]=3451.5
q[1,20,14,20]=1917.5
q[2,2,0,6]=9846.0
q[2,2,0,7]=7271.8
q[2,2,0,8]=7160.4
q[2,2,0,9]=39384.0
q[2,2,0,16]=15317.8
q[2,3,0,8]=65687.9
q[2,3,0,12]=13292.1
q[2,4,0,11]=69253.0
q[2,4,0,19]=9727.0
q[3,8,2,10]=3201.0
q[3,8,11,18]=4666.0
q[3,8,13,11]=27907.0
q[3,8,13,14]=3894.0
q[3,8,13,15]=6490.0
q[3,8,13,18]=65217.0
q[3,8,13,20]=16665.0
q[3,9,13,20]=32010.0
q[4,13,16,31]=121251.0
q[4,14,16,31]=24250.2
q[4,15,16,31]=40417.0
q[4,16,16,31]=703255.8
q[4,17,16,31]=80834.0
q[4,18,16,31]=646672.0
q[4,19,16,31]=181876.5
q[4,20,16,31]=303127.5
q[4,21,16,31]=214210.1
q[4,22,16,31]=32333.6
q[4,23,16,31]=157626.3
q[5,6,0,7]=1137.2
q[5,6,6,26]=452.8
q[5,7,0,7]=6360.0
q[5,8,0,8]=15900.0
q[5,9,0,10]=6360.0
q[5,10,0,15]=1590.0
q[5,11,0,11]=20113.5
q[5,12,0,18]=2146.5
q[5,13,0,13]=1268.0
q[5,13,0,15]=1117.0
q[5,14,0,18]=477.0
q[5,15,0,18]=795.0
q[5,16,0,16]=12212.5
q[5,16,9,17]=1620.5
q[5,17,0,18]=1590.0
q[5,18,0,18]=12720.0
q[5,19,0,19]=3577.5
q[5,20,0,20]=5962.5
q[5,21,0,23]=1752.0
q[5,21,0,26]=2461.5
q[5,22,0,24]=636.0
q[5,23,0,24]=3100.5
q[6,15,0,15]=2216.0
q[6,16,0,16]=38558.4
q[6,17,0,18]=4432.0
q[6,18,0,18]=35456.0
q[6,19,0,27]=9972.0
q[6,20,0,24]=7199.3
q[6,20,0,25]=9420.7
q[6,21,0,21]=11744.8
q[6,22,0,22]=5.21549736732e-09
q[6,22,0,24]=1772.8
q[6,23,0,25]=8642.4
q[7,16,0,16]=19564.6
q[7,16,0,17]=9846.0
q[7,16,0,19]=7169.0
q[7,16,0,22]=3266.39999999
q[7,17,0,18]=4580.0
q[7,18,0,18]=1839.0
q[7,18,0,20]=20655.0
q[7,18,0,24]=14146.0
q[7,19,0,20]=10305.0
q[7,20,0,23]=6684.7
q[7,20,0,25]=10490.3
q[7,21,0,24]=12137.0
q[7,22,0,23]=1832.0
q[7,23,0,23]=8931.0
q[8,15,16,31]=1984.0
q[8,16,16,31]=34521.6
q[8,17,16,31]=3968.0
q[8,18,16,31]=31744.0
q[8,19,16,31]=8928.0
q[8,20,16,31]=14880.0
q[8,21,16,31]=10515.2
q[8,22,16,31]=1587.2
q[8,23,16,31]=7737.6
q[9,24,16,31]=5998.4
q[9,25,16,31]=3781.6
q[10,26,16,31]=346.0
q[10,27,16,31]=3114.0
q[10,28,8,29]=325.0
q[10,28,16,31]=3481.0
q[10,29,16,31]=1453.2
q[10,30,16,31]=484.4
q[10,31,16,31]=1176.4
q[11,12,16,31]=1547.1
q[11,13,16,31]=1719.0
q[11,14,16,31]=343.8
q[11,15,16,31]=573.0
q[11,16,16,31]=9970.2
q[11,17,16,31]=1146.0
q[11,18,16,31]=9168.0
q[11,19,16,31]=2578.5
q[11,20,16,31]=4297.5
q[11,21,16,31]=3036.9
q[11,22,16,31]=458.4
q[11,23,16,31]=2234.7
q[12,17,0,19]=1680.0
q[12,18,0,18]=13440.0
q[12,19,0,27]=3780.0
q[12,20,0,24]=6300.0
q[12,21,0,21]=4452.0
q[12,22,0,22]=672.0
q[12,23,0,27]=3276.0
q[13,24,16,31]=3118.8
q[13,25,16,31]=1966.2
q[14,26,16,31]=776.5
q[14,27,16,31]=6988.5
q[14,28,16,31]=8541.5
q[14,29,16,31]=3261.3
q[14,30,16,31]=1087.1
q[14,31,16,31]=6677.9
q[15,20,16,31]=2685.0
q[15,21,16,31]=1897.4
q[15,22,16,31]=286.4
q[15,23,16,31]=1396.2
q[16,31,16,31]=21282.3
q[17,14,14,21]=317.4
q[17,15,14,17]=529.0
q[17,16,6,26]=271.2
q[17,16,14,16]=363.6
q[18,25,16,31]=14718.0
q[19,22,16,31]=4245.6
q[19,23,16,31]=20697.3
q[20,1,0,16]=6.89999999478
q[20,1,1,3]=7898.0
q[20,1,3,3]=6833.5
q[20,1,4,1]=67368.0
q[20,1,4,2]=8020.0
q[20,1,4,3]=8020.0
q[20,1,12,1]=100800.0
q[20,1,12,2]=31500.0
q[20,1,13,12]=17523.0
q[20,1,13,13]=19470.0
q[20,1,13,16]=112926.0
q[20,1,13,17]=12980.0
q[20,1,13,18]=38623.0
q[20,1,13,19]=29205.0
q[20,1,15,1]=1549766.0
q[20,1,15,2]=63515.0
q[20,1,15,3]=63515.0
q[20,1,15,4]=63515.0
q[20,1,15,5]=63515.0
q[20,1,15,6]=25406.0
q[20,1,15,7]=101624.0
q[20,1,15,8]=254060.0
q[20,1,16,31]=14402630.6
