data/mip_solutions/furman_sahinidis/reduced_transportation/37sp-yfyv_cplex.log

Log started (V12.6.3.0) Thu Jan 25 18:35:17 2018

New value for default parallel thread count: 1

Problem '/tmp/tmpLKzB3_.pyomo.lp' read.
Read time = 0.17 sec. (13.02 ticks)

Problem name         : /tmp/tmpLKzB3_.pyomo.lp
Objective sense      : Minimize
Variables            :  188855  [Nneg: 188497,  Binary: 357,  General Integer: 1]
Objective nonzeros   :       1
Linear constraints   :    1575  [Less: 357,  Equal: 1218]
  Nonzeros           :  566042
  RHS nonzeros       :     193

Variables            : Min LB: 0.000000         Max UB: 1.000000       
Objective nonzeros   : Min   : 1.000000         Max   : 1.000000       
Linear constraints   :
  Nonzeros           : Min   : 1.000000         Max   : 1.487607e+07   
  RHS nonzeros       : Min   : 1.000000         Max   : 1.718088e+07   
Tried aggregator 2 times.
MIP Presolve eliminated 1201 rows and 185532 columns.
Aggregator did 10 substitutions.
Reduced MIP has 364 rows, 3313 columns, and 9572 nonzeros.
Reduced MIP has 187 binaries, 0 generals, 0 SOSs, and 0 indicators.
Presolve time = 0.09 sec. (107.01 ticks)
Found incumbent of value 195.000000 after 0.14 sec. (153.14 ticks)
Tried aggregator 1 time.
MIP Presolve eliminated 4 rows and 0 columns.
MIP Presolve added 8 rows and 0 columns.
Reduced MIP has 368 rows, 3313 columns, and 9576 nonzeros.
Reduced MIP has 187 binaries, 0 generals, 0 SOSs, and 0 indicators.
Presolve time = 0.00 sec. (3.95 ticks)
Probing time = 0.00 sec. (0.37 ticks)
Clique table members: 11.
MIP emphasis: balance optimality and feasibility.
MIP search method: dynamic search.
Parallel mode: none, using 1 thread.
Root relaxation solution time = 0.02 sec. (23.41 ticks)

        Nodes                                         Cuts/
   Node  Left     Objective  IInf  Best Integer    Best Bound    ItCnt     Gap

*     0+    0                          195.0000        8.0000            95.90%
      0     0       32.2137    24      195.0000       32.2137     1556   83.48%
*     0+    0                           44.0000       32.2137            26.79%
      0     0       32.8162    30       44.0000      Cuts: 90     2367   25.42%
      0     0       32.9451    24       44.0000     Cuts: 192     3074   25.12%
      0     0       33.1687    23       44.0000     Cuts: 192     4284   24.62%
*     0+    0                           39.0000       33.1687            14.95%
*     0+    0                           37.0000       33.1687            10.35%
      0     0       33.4881    26       37.0000     Cuts: 192     4990    9.49%
      0     0       33.6053    29       37.0000     Cuts: 192     6253    9.17%
      0     0       33.6580    21       37.0000     Cuts: 192     6599    9.03%
      0     0       33.6583    28       37.0000     Cuts: 192     7180    9.03%
      0     0       33.6705    21       37.0000      Cuts: 22     7296    9.00%
      0     0       33.6708    20       37.0000     Cuts: 154     7527    9.00%
      0     2       33.6708     8       37.0000       33.6708     7527    9.00%
Elapsed time = 0.61 sec. (824.86 ticks, tree = 0.01 MB, solutions = 4)
     36    38       34.2945    18       37.0000       33.6708    13106    9.00%
     37    39       35.0000    18       37.0000       33.6708    13114    9.00%
     38    40       34.2945    16       37.0000       33.6708    13125    9.00%
     39    41       34.2945    15       37.0000       33.6708    13133    9.00%
     40    40    infeasible             37.0000       33.6708    13133    9.00%
     41    41       35.0000    14       37.0000       33.6708    13148    9.00%
     42    42       35.0055     9       37.0000       33.6708    13158    9.00%
     43    43       35.0055     7       37.0000       33.6708    13202    9.00%
     44    44       35.0055     5       37.0000       33.6708    13218    9.00%
    280   205       35.3191     6       37.0000       33.6712    22944    9.00%
Elapsed time = 1.21 sec. (1783.24 ticks, tree = 1.29 MB, solutions = 4)
    757   597       33.6788    10       37.0000       33.6760    36191    8.98%
    758   598       33.9496    13       37.0000       33.6760    36405    8.98%
    759   599       33.9590    11       37.0000       33.6760    36414    8.98%
    760   600       33.9590    13       37.0000       33.6760    36421    8.98%
    761   601       33.9590    13       37.0000       33.6760    36422    8.98%
    762   602       33.9590    13       37.0000       33.6760    36423    8.98%
    763   603       33.9590    13       37.0000       33.6760    36424    8.98%
    764   604       33.9590    13       37.0000       33.6760    36427    8.98%
    765   605       33.9590    11       37.0000       33.6760    36439    8.98%
    766   606       33.9590    11       37.0000       33.6760    36448    8.98%
Elapsed time = 1.82 sec. (2777.44 ticks, tree = 4.61 MB, solutions = 4)
    940   758       33.9198    16       37.0000       34.0734    57980    7.91%
    941   758       34.0743    15       37.0000       34.1090    57992    7.81%
    942   759       34.1090    15       37.0000       34.1285    58008    7.76%
    943   760       34.1285    30       37.0000       34.1749    58240    7.64%
    944   761       34.6717    22       37.0000       34.1749    58300    7.64%
    945   762       34.7675    28       37.0000       34.1749    58559    7.64%
    946   762       35.0000    20       37.0000       34.1749    58566    7.64%
    947   762       35.0000    28       37.0000       34.1749    58841    7.64%
    948   762       35.0000    23       37.0000       34.1749    58888    7.64%
    949   762       35.0000    28       37.0000       34.1749    58917    7.64%
Elapsed time = 3.41 sec. (5065.58 ticks, tree = 5.94 MB, solutions = 4)
   1140   712       35.6502     2       37.0000       34.6717    68627    6.29%
   1141   713       35.6502     2       37.0000       34.6717    68627    6.29%
   1142   713       35.6502     2       37.0000       34.6717    68628    6.29%
   1143   712       35.6502     2       37.0000       34.6717    68631    6.29%
   1144   711       35.6568     2       37.0000       34.6717    68635    6.29%
   1145   711       35.6568     2       37.0000       34.6717    68637    6.29%
   1146   710       35.6568     2       37.0000       34.6717    68638    6.29%
   1147   710       35.6568     2       37.0000       34.6717    68640    6.29%
   1148   710       35.6568     2       37.0000       34.6717    68642    6.29%
   1149   710       35.6568     2       37.0000       34.6717    68643    6.29%
Elapsed time = 4.03 sec. (6036.12 ticks, tree = 4.59 MB, solutions = 4)
   1330   710       35.0000    13       37.0000       34.6717    82473    6.29%
   1331   711       35.0000    13       37.0000       34.6717    82474    6.29%
   1332   711       35.0000    13       37.0000       34.6717    82477    6.29%
   1333   711       35.0028    11       37.0000       34.6717    82578    6.29%
   1334   712       35.0050    11       37.0000       34.6717    82579    6.29%
   1335   712       35.0050    12       37.0000       34.6717    82582    6.29%
   1336   713       35.0050    11       37.0000       34.6717    82583    6.29%
   1337   714       35.0050    12       37.0000       34.6717    82585    6.29%
   1338   715       35.0050    11       37.0000       34.6717    82586    6.29%
   1339   715       35.0050    12       37.0000       34.6717    82594    6.29%
Elapsed time = 4.66 sec. (7007.55 ticks, tree = 3.78 MB, solutions = 4)
   1569   760       35.2918    16       37.0000       34.9242    96138    5.61%
   1570   760       35.2918    14       37.0000       34.9242    96139    5.61%
   1571   761       35.2918    15       37.0000       34.9242    96151    5.61%
   1572   762       35.2918    14       37.0000       34.9242    96153    5.61%
   1573   763       35.2918    15       37.0000       34.9242    96161    5.61%
   1574   764       35.2918     7       37.0000       34.9242    96340    5.61%
   1575   765       35.2918    13       37.0000       34.9242    96605    5.61%
   1576   766       35.2918    11       37.0000       34.9242    96616    5.61%
   1577   766       35.2918     5       37.0000       34.9242    96727    5.61%
   1578   767       35.2918     5       37.0000       34.9242    96735    5.61%
Elapsed time = 5.29 sec. (7994.90 ticks, tree = 3.02 MB, solutions = 4)
   1920   835       36.0000     2       37.0000       35.0000   104839    5.41%
   1921   836       36.0000     2       37.0000       35.0000   104847    5.41%
   1922   834        cutoff             37.0000       35.0000   104859    5.41%
   1923   834       36.0000     2       37.0000       35.0000   105008    5.41%
   1924   835       36.0000     2       37.0000       35.0000   105138    5.41%
   1925   833        cutoff             37.0000       35.0000   105292    5.41%
   1926   831        cutoff             37.0000       35.0000   105485    5.41%
   1927   830       35.5110     6       37.0000       35.0000   105703    5.41%
   1928   830       35.5201     6       37.0000       35.0000   105706    5.41%
   1929   831       35.5585     8       37.0000       35.0000   105727    5.41%
Elapsed time = 5.91 sec. (9009.18 ticks, tree = 1.94 MB, solutions = 4)
   2190   903       35.0000     6       37.0000       35.0000   114619    5.41%
   2191   903       35.0156     5       37.0000       35.0000   114661    5.41%
   2192   904       35.0156     5       37.0000       35.0000   114662    5.41%
   2193   904       35.0156     5       37.0000       35.0000   114664    5.41%
   2194   905       35.0156     5       37.0000       35.0000   114665    5.41%
   2195   905       35.0156     5       37.0000       35.0000   114666    5.41%
   2196   905       35.0156     5       37.0000       35.0000   114668    5.41%
   2197   905       35.0156     5       37.0000       35.0000   114670    5.41%
   2198   906       35.0156     5       37.0000       35.0000   114671    5.41%
   2199   907       35.0387     5       37.0000       35.0000   114672    5.41%
Elapsed time = 6.55 sec. (9968.69 ticks, tree = 1.18 MB, solutions = 4)
   2940  1377       35.0681     2       37.0000       35.0000   124900    5.41%
   2941  1377       35.0681     2       37.0000       35.0000   124901    5.41%
   2942  1377       35.0681     2       37.0000       35.0000   124902    5.41%
   2943  1378       35.2838     2       37.0000       35.0000   124903    5.41%
   2944  1379       35.2838     2       37.0000       35.0000   124905    5.41%
   2945  1380       35.2838     2       37.0000       35.0000   124906    5.41%
   2946  1381       35.2838     2       37.0000       35.0000   124907    5.41%
   2947  1382       35.2838     2       37.0000       35.0000   124908    5.41%
   2948  1383       35.2838     2       37.0000       35.0000   124909    5.41%
   2949  1384       35.2838     2       37.0000       35.0000   124910    5.41%
Elapsed time = 7.17 sec. (10973.42 ticks, tree = 1.49 MB, solutions = 4)
   3688  1886       36.0000     2       37.0000       35.0000   138255    5.41%
   3689  1885        cutoff             37.0000       35.0000   138390    5.41%
   3690  1886       36.0000     2       37.0000       35.0000   138428    5.41%
   3691  1885        cutoff             37.0000       35.0000   138431    5.41%
   3692  1884        cutoff             37.0000       35.0000   138559    5.41%
   3693  1885       35.0000     4       37.0000       35.0000   138638    5.41%
   3694  1886       35.0007     3       37.0000       35.0000   138640    5.41%
   3695  1887       35.0024     3       37.0000       35.0000   138642    5.41%
   3696  1888       35.0026     3       37.0000       35.0000   138648    5.41%
   5470  3111       35.9494     2       37.0000       35.0000   193262    5.41%
Elapsed time = 9.52 sec. (14788.42 ticks, tree = 3.31 MB, solutions = 4)
   8449  4732       35.0496     9       37.0000       35.0000   266140    5.41%
   8450  4733       35.0496     8       37.0000       35.0000   266141    5.41%
   8451  4734       35.0712     6       37.0000       35.0000   266143    5.41%
   8452  4734       35.2690     6       37.0000       35.0000   266144    5.41%
   8453  4734       35.2690     6       37.0000       35.0000   266145    5.41%
   8454  4734       35.2690     6       37.0000       35.0000   266146    5.41%
   8455  4734       35.3028     6       37.0000       35.0000   266503    5.41%
   8456  4734       35.5219     4       37.0000       35.0000   266509    5.41%
   8457  4735       35.5271     4       37.0000       35.0000   267100    5.41%
   8458  4736       35.5321     4       37.0000       35.0000   267108    5.41%
Elapsed time = 11.87 sec. (18638.66 ticks, tree = 5.07 MB, solutions = 4)
  10340  6072       35.2918     6       37.0000       35.0000   327834    5.41%
  10341  6073       35.0026     8       37.0000       35.0000   327866    5.41%
  10342  6074       35.0128     8       37.0000       35.0000   328018    5.41%
  10343  6075       35.0232     9       37.0000       35.0000   328023    5.41%
  10344  6076       35.0232     9       37.0000       35.0000   328024    5.41%
  10345  6077       35.0232    10       37.0000       35.0000   328026    5.41%
  10346  6078       35.0232     9       37.0000       35.0000   328027    5.41%
  10347  6079       35.0232     9       37.0000       35.0000   328029    5.41%
  10348  6080       35.0232     8       37.0000       35.0000   328030    5.41%
  10349  6081       35.0232     8       37.0000       35.0000   328034    5.41%
Elapsed time = 15.46 sec. (24214.65 ticks, tree = 6.44 MB, solutions = 4)
  12745  7760       36.0000    10       37.0000       35.0000   404020    5.41%
  12746  7761       35.0402    14       37.0000       35.0000   404021    5.41%
  12747  7762       35.0402    13       37.0000       35.0000   404022    5.41%
  12748  7763       35.0402    13       37.0000       35.0000   404038    5.41%
  12749  7764       35.0402    13       37.0000       35.0000   404068    5.41%
  12750  7765       35.1144     9       37.0000       35.0000   404095    5.41%
  12751  7766       36.0000     8       37.0000       35.0000   404106    5.41%
  12752  7767       35.7124     9       37.0000       35.0000   404112    5.41%
  12753  7768       36.0000     8       37.0000       35.0000   404125    5.41%
  12754  7769       36.0000    10       37.0000       35.0000   404275    5.41%
Elapsed time = 17.83 sec. (28045.01 ticks, tree = 8.16 MB, solutions = 4)
  15703  9801       35.8908     2       37.0000       35.0000   479977    5.41%
  15704  9801       35.8908     2       37.0000       35.0000   479978    5.41%
  15705  9801       35.8908     2       37.0000       35.0000   479979    5.41%
  15706  9801       35.8908     2       37.0000       35.0000   479980    5.41%
  15707  9801       35.8908     2       37.0000       35.0000   479982    5.41%
  15708  9801       35.8908     2       37.0000       35.0000   479983    5.41%
  15709  9801       35.8908     2       37.0000       35.0000   479984    5.41%
  15710  9801       35.8908     2       37.0000       35.0000   479985    5.41%
  15711  9801       35.8908     2       37.0000       35.0000   479986    5.41%
  15712  9800       36.7231     2       37.0000       35.0000   479987    5.41%
Elapsed time = 20.22 sec. (31863.78 ticks, tree = 10.46 MB, solutions = 4)
  19112 12055        cutoff             37.0000       35.0000   550017    5.41%
  19113 12056       36.0000     4       37.0000       35.0000   550138    5.41%
  19114 12057       36.0000     6       37.0000       35.0000   550199    5.41%
  19115 12058       36.0000     7       37.0000       35.0000   550202    5.41%
  19116 12059       36.0000     6       37.0000       35.0000   550218    5.41%
  19117 12060       36.0000     4       37.0000       35.0000   550222    5.41%
  19118 12059        cutoff             37.0000       35.0000   550418    5.41%
  19119 12060       36.0000     2       37.0000       35.0000   550424    5.41%
  19120 12060       36.0000     2       37.0000       35.0000   550428    5.41%
  19121 12059        cutoff             37.0000       35.0000   550580    5.41%
Elapsed time = 22.66 sec. (35704.25 ticks, tree = 12.76 MB, solutions = 4)
  21270 13593       35.0696     6       37.0000       35.0000   622321    5.41%
  21271 13594       35.0696     6       37.0000       35.0000   622347    5.41%
  21272 13595       35.0696     5       37.0000       35.0000   622350    5.41%
  21273 13596       35.1415     7       37.0000       35.0000   622384    5.41%
  21274 13597       35.1340     5       37.0000       35.0000   622836    5.41%
  21275 13598       35.1537     3       37.0000       35.0000   623390    5.41%
  21276 13599       35.1728     5       37.0000       35.0000   623439    5.41%
  21277 13600       35.1640     4       37.0000       35.0000   623494    5.41%
  21278 13601       35.1717     3       37.0000       35.0000   623540    5.41%
  21279 13602       35.4447     3       37.0000       35.0000   623574    5.41%
Elapsed time = 25.11 sec. (39568.44 ticks, tree = 14.34 MB, solutions = 4)
  23329 14997        cutoff             37.0000       35.0000   709091    5.41%
  23330 14998       35.0000     4       37.0000       35.0000   709295    5.41%
  23331 14999       35.0000     3       37.0000       35.0000   709332    5.41%
  23332 15000       35.0026     3       37.0000       35.0000   709382    5.41%
  23333 15001       35.0088    10       37.0000       35.0000   709389    5.41%
  23334 15002       35.0088     9       37.0000       35.0000   709392    5.41%
  23335 15003       35.0211     3       37.0000       35.0000   709395    5.41%
  23336 15004       35.0314     7       37.0000       35.0000   709397    5.41%
  23337 15005       35.0314     8       37.0000       35.0000   709405    5.41%
  23338 15006       35.0314     8       37.0000       35.0000   709409    5.41%
Elapsed time = 27.47 sec. (43401.36 ticks, tree = 15.79 MB, solutions = 4)
  25621 16649       35.6666     6       37.0000       35.0000   777469    5.41%
  25622 16649       35.7582     3       37.0000       35.0000   777590    5.41%
  25623 16649       35.7582     3       37.0000       35.0000   777591    5.41%
  25624 16649       35.7781     3       37.0000       35.0000   777592    5.41%
  25625 16649       35.7768     3       37.0000       35.0000   777607    5.41%
  25626 16649       35.7938     3       37.0000       35.0000   777621    5.41%
  25627 16649       35.7788     4       37.0000       35.0000   777959    5.41%
  25628 16649       35.8054     4       37.0000       35.0000   777965    5.41%
  25629 16649       35.8035     4       37.0000       35.0000   778011    5.41%
  25630 16648        cutoff             37.0000       35.0000   778013    5.41%
Elapsed time = 29.84 sec. (47235.41 ticks, tree = 17.94 MB, solutions = 4)
  27562 18113       35.0277    13       37.0000       35.0000   850273    5.41%
  27563 18113       35.0507    13       37.0000       35.0000   850284    5.41%
  27564 18114       36.0000    12       37.0000       35.0000   850286    5.41%
  27565 18115       36.0000    12       37.0000       35.0000   850293    5.41%
  27566 18114        cutoff             37.0000       35.0000   850321    5.41%
  27567 18113        cutoff             37.0000       35.0000   850418    5.41%
  27568 18114       35.0000    14       37.0000       35.0000   850790    5.41%
  27569 18115       35.0000    13       37.0000       35.0000   850810    5.41%
  27570 18116       35.0000    13       37.0000       35.0000   851098    5.41%
  27571 18117       35.0000    15       37.0000       35.0000   851330    5.41%
Elapsed time = 32.35 sec. (51100.59 ticks, tree = 19.45 MB, solutions = 4)
* 27697 18198      integral     0       36.0000       35.0000   853980    2.78%

Cover cuts applied:  53
Implied bound cuts applied:  192
Flow cuts applied:  14
Mixed integer rounding cuts applied:  25
Lift and project cuts applied:  3
Gomory fractional cuts applied:  5

Root node processing (before b&c):
  Real time             =    0.62 sec. (833.55 ticks)
Sequential b&c:
  Real time             =   31.83 sec. (50443.65 ticks)
                          ------------
Total (root+branch&cut) =   32.45 sec. (51277.19 ticks)

Solution pool: 5 solutions saved.

MIP - Integer optimal, tolerance (0.04/1e-06):  Objective =  3.6000009344e+01
Current MIP best bound =  3.5000000000e+01 (gap = 1.00001, 2.78%)
Solution time =   32.45 sec.  Iterations = 853980  Nodes = 27698 (18198)
Deterministic time = 51277.73 ticks  (1580.00 ticks/sec)


Incumbent solution written to file '/tmp/tmpAfTcVn.cplex.sol'.
